c Random generated cnf formula, satisfiable: true
p cnf 10 50
-1 -9 -7 0
-6 3 10 0
-4 -2 6 0
-6 3 5 0
3 9 -1 0
1 -4 -2 0
-9 4 1 0
-1 -5 -4 0
3 5 9 0
10 -1 -5 0
4 7 -8 0
-9 -4 -1 0
-2 -9 10 0
7 9 1 0
-10 -2 -6 0
7 -3 -6 0
1 6 10 0
-6 -7 -1 0
-4 -6 3 0
-3 6 9 0
8 9 -5 0
6 -3 2 0
1 -9 -10 0
5 -4 -8 0
5 8 1 0
10 -6 2 0
-3 10 -7 0
-5 -6 -2 0
9 -8 10 0
4 10 9 0
1 -5 -6 0
-7 -8 -10 0
-6 -10 -5 0
-8 5 -2 0
-5 7 10 0
4 2 5 0
-6 2 5 0
-8 4 -5 0
-9 2 10 0
10 3 1 0
-2 5 6 0
-8 -5 -7 0
-8 -7 -2 0
7 -5 -4 0
1 -6 -3 0
-5 6 9 0
-3 -10 -4 0
-7 -3 5 0
-3 -10 -7 0
2 -8 1 0
